Route #1: 51 28 15
Route #2: 20 40 61 29 43 8 10 7
Route #3: 6 32 57 50 17 58 33 34
Route #4: 59 55 26 35 49 31 14 56
Route #5: 45 47 39 27 23 41 21 4 11 25 60
Route #6: 38 19 30 1 18 13 12 48 53
Route #7: 46 24 3 42 54 9 5
Route #8: 36 16 37 22 44 2 52
Cost 1290
Time 0.225859
